NAME : portcgen-27-14
COMMENT : portcgen N=27, seed=14
TYPE : TSP
DIMENSION : 27
EDGE_WEIGHT_TYPE : EUC_2D
NODE_COORD_SECTION
1 -500260 -210356
2 -283676 346576
3 71081 -116741
4 120317 -87847
5 314871 -120708
6 136751 -137844
7 204805 -52234
8 279476 -49473
9 -43040 -215823
10 -155866 -46798
11 -127306 -57452
12 12629 56330
13 -235831 -63561
14 171635 420402
15 97143 213280
16 87188 81668
17 131797 -321533
18 96226 -93240
19 99198 -126158
20 -161986 204307
21 -243332 -315879
22 -108603 -294008
23 390149 -251422
24 -82838 -72857
25 -157010 -208879
26 158992 75644
27 525291 -93227
